\ Model QCP
\ LP format - for model browsing. Use MPS format to capture full model detail.
Minimize
  z + y
Subject To
 Cut_0: z + [ ] >= 1320
 Cut_1: z + [ 6 y ^2 ] >= 2748
 Cut_2: z + [ 4 y ^2 ] >= 2352
 Cut_3: z + [ ] >= 1320
 Cut_4: z + [ ] >= 1320
 Cut_5: z + [ ] >= 1320
 Cut_6: z + [ ] >= 1320
 Cut_7: z + [ ] >= 1320
 Cut_8: z + [ ] >= 1320
 Cut_9: z + [ ] >= 1320
Bounds
 1320 <= z <= 1680
 13.34166406412633 <= y <= 16.06237840420901
End
